(set-logic HORN)
(declare-fun state (Int (Array Int Int) Int (Array Int Int) Int Int Int Int (Array Int Int) Int Int (Array Int Int) Bool Bool Bool Int Int) Bool)
(assert (forall ((|D_7| Int) (|E_7| (Array Int Int)) (|A_8| Int) (|B_8| (Array Int Int)) (|K_7| Int) (|J_7| Int) (|C_7| Int) (|.y.16| Int) (|.y.17| (Array Int Int)) (|.y.18| Int) (|.y.19| Int) (|.y.20| (Array Int Int)) (|.loc.21| Bool) (|.loc.22| Bool) (|.loc.23| Bool) (|C_9| Int) (|D_9| Int) (|.loc.36| Bool) (|.y.30| Int) (|.y.29| Int) (|.y.24| Int) (|.y.25| (Array Int Int)) (|.y.26| Int) (|.y.27| (Array Int Int)) (|.y.28| Int) (|.loc.37| Bool) (|.loc.38| Bool) (|.y.31| Int) (|.y.33| Int) (|.y.32| (Array Int Int)) (|.y.34| Int) (|.y.35| (Array Int Int)) (|.xtv.1| Int) (|.xtv.2| Int)) (=> (and (and .loc.22 (not .loc.21)) (not .loc.23)) (state |D_7| |E_7| |A_8| |B_8| |K_7| |J_7| |C_7| |.y.16| |.y.17| |.y.18| |.y.19| |.y.20| |.loc.21| |.loc.22| |.loc.23| |C_9| |D_9|))))
(assert (forall ((|D_7| Int) (|E_7| (Array Int Int)) (|A_8| Int) (|B_8| (Array Int Int)) (|K_7| Int) (|J_7| Int) (|C_7| Int) (|.y.16| Int) (|.y.17| (Array Int Int)) (|.y.18| Int) (|.y.19| Int) (|.y.20| (Array Int Int)) (|.loc.21| Bool) (|.loc.22| Bool) (|.loc.23| Bool) (|C_9| Int) (|D_9| Int) (|.loc.36| Bool) (|.y.30| Int) (|.y.29| Int) (|.y.24| Int) (|.y.25| (Array Int Int)) (|.y.26| Int) (|.y.27| (Array Int Int)) (|.y.28| Int) (|.loc.37| Bool) (|.loc.38| Bool) (|.y.31| Int) (|.y.33| Int) (|.y.32| (Array Int Int)) (|.y.34| Int) (|.y.35| (Array Int Int)) (|.xtv.1| Int) (|.xtv.2| Int)) (=> (and (state |D_7| |E_7| |A_8| |B_8| |K_7| |J_7| |C_7| |.y.16| |.y.17| |.y.18| |.y.19| |.y.20| |.loc.21| |.loc.22| |.loc.23| |C_9| |D_9|) (let ((.def_27 (not .loc.21))) (let ((.def_29 (not .loc.23))) (let ((.def_38 (= (select E_7 (+ D_7 C_7)) 0))) (let ((.def_39 (<= D_7 0))) (let ((.def_40 (not .def_39))) (let ((.def_44 (or .def_39 (not (<= (+ D_7 C_7) 0))))) (let ((.def_51 (<= 0 C_7))) (let ((.def_54 (not (<= 2 C_7)))) (let ((.def_64 (not .loc.36))) (let ((.def_66 (not .loc.22))) (let ((.def_72 (= D_7 .y.24))) (let ((.def_75 (= E_7 .y.25))) (let ((.def_78 (= A_8 .y.26))) (let ((.def_81 (= B_8 .y.27))) (let ((.def_84 (= K_7 .y.28))) (let ((.def_93 (not (<= D_9 0)))) (let ((.def_94 (<= A_8 0))) (let ((.def_107 (select E_7 C_9))) (let ((.def_125 (not .loc.38))) (let ((.def_127 (not .loc.37))) (let ((.def_131 (not .def_94))) (let ((.def_136 (not (<= C_9 0)))) (let ((.def_137 (or .def_39 .def_136))) (let ((.def_147 (not (<= .y.19 A_8)))) (let ((.def_149 (not (<= 0 .y.19)))) (let ((.def_151 (<= 0 A_8))) (let ((.def_152 (or (and .def_147 .def_149) .def_151))) (let ((.def_155 (or (or .def_147 .def_149) (not .def_151)))) (let ((.def_158 (and .loc.21 .loc.23))) (let ((.def_165 (= .y.30 0))) (let ((.def_167 (= .y.29 0))) (let ((.def_194 (<= 0 J_7))) (let ((.def_196 (not (<= 2 J_7)))) (let ((.def_211 (= .y.18 .y.33))) (let ((.def_216 (= .y.17 .y.32))) (let ((.def_219 (= .y.19 .y.34))) (let ((.def_222 (<= K_7 0))) (let ((.def_271 (and .def_27 (and .loc.23 .def_40)))) (let ((.def_283 (or .def_39 (not (<= (+ D_7 K_7) 0))))) (let ((.def_286 (= (select E_7 (+ D_7 K_7)) 0))) (let ((.def_311 (<= 0 K_7))) (let ((.def_314 (not (<= 5 K_7)))) (let ((.def_322 (and .loc.21 .loc.22))) (let ((.def_328 (= .y.28 0))) (let ((.def_332 (or .def_94 .def_136))) (let ((.def_352 (= (+ K_7 (* (- 1) .y.28)) (- 1)))) (or (or (or (or (or (or (or (or (or (or (and .def_27 (or (and (or (and (and .loc.23 (and .loc.22 (and (= (ite (= K_7 J_7) 1 0) 0) (and (and .def_38 .def_40) .def_44)))) .loc.36) (and (and (and (and (and (and (not (and .def_51 .def_54)) (and (= (+ J_7 (* (- 1) .y.30)) (- 1)) (and (= .y.16 .y.29) (and (and .def_29 .def_64) .def_66)))) .def_72) .def_75) .def_78) .def_81) .def_84)) (and .loc.37 .loc.38)) (and (= J_7 .y.29) (and (or .def_93 .def_94) (and (and (= (+ D_7 (+ J_7 (* (- 1) C_9))) 0) (and (= (+ A_8 (+ C_7 (* (- 1) D_9))) 0) (and (and (= (+ C_7 (* (- 1) .y.30)) (- 1)) (and (= (+ .y.16 (+ (ite (= (select B_8 D_9) .def_107) 1 0) (* (- 1) .y.31))) 0) (and (and (and .def_84 (and .def_81 (and .def_78 (and .def_75 (and .def_72 (and .def_51 (and .def_54 (and .def_66 (and .def_29 (and .def_40 .def_64)))))))))) .def_125) .def_127))) .def_131))) .def_137))))) (and (= .y.18 .y.28) (and (= .y.17 .y.27) (and (= K_7 .y.26) (and (not (and .def_152 .def_155)) (and (and (and .def_75 (and .def_72 (and .def_66 (and .def_64 (and .loc.38 (and .loc.37 .def_158)))))) .def_165) .def_167)))))) (and (= C_7 .y.29) (and (not .def_38) (and (= J_7 .y.31) (and .def_165 (and .def_127 (and .def_125 (and .def_84 (and .def_81 (and .def_78 (and .def_75 (and .def_72 (and .def_64 (and .def_27 (and .loc.23 (and .loc.22 (and .def_40 .def_44))))))))))))))))) (and (and (and (not (and .def_194 .def_196)) (and (= (+ A_8 (* (- 1) .y.26)) (- 1)) (and (and .def_127 (and .def_84 (and .def_75 (and .def_72 (and .def_66 (and .def_29 (and .loc.38 (and .loc.21 .loc.36)))))))) .def_211))) .def_216) .def_219)) (and (or .def_93 .def_222) (and (= (+ D_7 (+ A_8 (* (- 1) C_9))) 0) (and (= (+ K_7 (+ J_7 (* (- 1) D_9))) 0) (and (not .def_222) (and (= (+ J_7 (* (- 1) .y.29)) (- 1)) (and (= (+ .y.18 (+ (* (- 1) .y.33) (ite (= .def_107 (select .y.17 D_9)) 1 0))) 0) (and .def_219 (and .def_216 (and .def_194 (and .def_196 (and .def_137 (and .def_127 (and .def_125 (and .def_84 (and .def_78 (and .def_75 (and .def_72 (and .def_66 (and .def_29 (and .loc.36 (and .loc.21 .def_40)))))))))))))))))))))) (and (= K_7 .y.34) (and (= B_8 .y.32) (and (= A_8 .y.28) (and (and (and (= .y.33 0) (and (= .y.26 0) (and .def_127 (and .def_75 (and .def_72 (and .def_66 (and .loc.38 (and .loc.36 .def_271)))))))) .def_283) .def_286))))) (and .def_219 (and .def_216 (and .def_211 (and .def_152 (and .def_155 (and .def_167 (and .def_127 (and .def_125 (and .def_84 (and .def_78 (and .def_75 (and .def_72 (and .def_66 (and .loc.36 .def_158))))))))))))))) (and (= .y.20 .y.27) (and (= .y.18 .y.26) (and (= .y.17 .y.25) (and (= A_8 .y.24) (and (not (and .def_311 .def_314)) (and (and (= (+ A_8 (* (- 1) C_9)) (- 4)) (and (= (select .y.17 C_9) 0) (and (and .def_131 (and .def_127 (and .def_29 (and .def_64 (and .loc.38 .def_322))))) .def_328))) .def_332))))))) (and (not .def_286) (and (and .def_283 (and .def_127 (and .def_81 (and .def_78 (and .def_75 (and .def_72 (and .def_66 (and .def_64 (and .loc.38 .def_271))))))))) .def_352))) (and (= E_7 .y.35) (and (not (<= .y.26 0)) (and .def_328 (and .def_125 (and .def_72 (and .def_29 (and .loc.37 (and (and .loc.22 .def_27) .loc.36))))))))) (and (= .y.20 .y.35) (and (= (+ A_8 (+ K_7 (* (- 1) C_9))) 0) (and (= .y.32 (store .y.17 C_9 D_9)) (and .def_352 (and .def_311 (and .def_314 (and .def_332 (and .def_211 (and .def_131 (and .def_125 (and .def_78 (and .def_72 (and .def_29 (and .loc.37 (and .loc.36 .def_322))))))))))))))))))))))))))))))))))))))))))))))))))))))))))))))) (state |.y.24| |.y.25| |.y.26| |.y.27| |.y.28| |.y.29| |.y.30| |.y.31| |.y.32| |.y.33| |.y.34| |.y.35| |.loc.36| |.loc.37| |.loc.38| |.xtv.1| |.xtv.2|))))
(assert (forall ((|D_7| Int) (|E_7| (Array Int Int)) (|A_8| Int) (|B_8| (Array Int Int)) (|K_7| Int) (|J_7| Int) (|C_7| Int) (|.y.16| Int) (|.y.17| (Array Int Int)) (|.y.18| Int) (|.y.19| Int) (|.y.20| (Array Int Int)) (|.loc.21| Bool) (|.loc.22| Bool) (|.loc.23| Bool) (|C_9| Int) (|D_9| Int) (|.loc.36| Bool) (|.y.30| Int) (|.y.29| Int) (|.y.24| Int) (|.y.25| (Array Int Int)) (|.y.26| Int) (|.y.27| (Array Int Int)) (|.y.28| Int) (|.loc.37| Bool) (|.loc.38| Bool) (|.y.31| Int) (|.y.33| Int) (|.y.32| (Array Int Int)) (|.y.34| Int) (|.y.35| (Array Int Int)) (|.xtv.1| Int) (|.xtv.2| Int)) (=> (state |D_7| |E_7| |A_8| |B_8| |K_7| |J_7| |C_7| |.y.16| |.y.17| |.y.18| |.y.19| |.y.20| |.loc.21| |.loc.22| |.loc.23| |C_9| |D_9|) (not (and .loc.23 (and .loc.21 .loc.22))))))
(check-sat)
